(set-info :source |printed by MathSAT|)
(declare-fun call__main_.call_hypothese.flby.next () Bool)
(declare-fun call__main_.flby.next () Int)
(declare-fun call__main_.ast () Bool)
(declare-fun call__main_.call_controleur.retard.next () Bool)
(declare-fun call__main_.flby () Int)
(declare-fun call__main_.call_hypothese.flby2.next () Int)
(declare-fun call__main_.call_controleur2.flby () Bool)
(declare-fun call__main_.nS.next () Int)
(declare-fun call_Sofar.Sofar () Bool)
(declare-fun call_Sofar.Sofar.next () Bool)
(declare-fun retard1 () Bool)
(declare-fun call__main_.call_hypothese.ok.next () Bool)
(declare-fun call__main_.call_controleur2.flby.next () Bool)
(declare-fun call__main_.call_controleur2.retard () Bool)
(declare-fun call__main_.call_controleur2.ite2.next () Bool)
(declare-fun _OK_ () Bool)
(declare-fun call__main_.flby3 () Int)
(declare-fun call__main_.call_controleur.flby.next () Bool)
(declare-fun call__main_.diff1 () Int)
(declare-fun call__main_.call_controleur.flby () Bool)
(declare-fun call__main_.call_hypothese.flby () Bool)
(declare-fun call__main_.call_hypothese2.c () Int)
(declare-fun nB1 () Int)
(declare-fun call__main_.nB0 () Int)
(declare-fun call__main_.call_controleur2.flby2 () Bool)
(declare-fun call__main_.avance1.next () Bool)
(declare-fun call__main_.call_hypothese2.ite2.next () Bool)
(declare-fun call__main_._H0_.next () Bool)
(declare-fun call__main_.avance1 () Bool)
(declare-fun call__main_.call_controleur.diff () Int)
(declare-fun nB1.next () Int)
(declare-fun call__main_.call_controleur.ite2.next () Bool)
(declare-fun diff0.next () Int)
(declare-fun retard1.next () Bool)
(declare-fun call__main_.flby2.next () Int)
(declare-fun call__main_.call_hypothese2.flby2.next () Int)
(declare-fun call__main_.retard1 () Bool)
(declare-fun avance0 () Bool)
(declare-fun call__main_.nB0.next () Int)
(declare-fun call__main_.call_controleur2.avance.next () Bool)
(declare-fun call__main_._H1_.next () Bool)
(declare-fun call__main_.diff0 () Int)
(declare-fun call__main_.call_hypothese.ite3.next () Int)
(declare-fun call__main_.call_controleur2.diff () Int)
(declare-fun retard0.next () Bool)
(declare-fun call__main_.call_hypothese2.c.next () Int)
(declare-fun call__main_.call_hypothese2.flby.next () Bool)
(declare-fun call__main_.retard1.next () Bool)
(declare-fun avance0.next () Bool)
(declare-fun call__main_.call_hypothese.ite2.next () Bool)
(declare-fun param__B0_.next () Bool)
(declare-fun call__main_.call_controleur.avance () Bool)
(declare-fun call__main_.call_hypothese2.ok.next () Bool)
(declare-fun call__main_.call_hypothese2.flby () Bool)
(declare-fun call__main_.call_hypothese2.ok () Bool)
(declare-fun call__main_.diff1.next () Int)
(declare-fun call__main_.ite2.next () Int)
(declare-fun call__main_.call_controleur2.ite.next () Bool)
(declare-fun call__main_.nS () Int)
(declare-fun call__main_.call_controleur.ite.next () Bool)
(declare-fun call__main_.avance0 () Bool)
(declare-fun retard0 () Bool)
(declare-fun call__main_.call_controleur2.retard.next () Bool)
(declare-fun avance1 () Bool)
(declare-fun flby () Bool)
(declare-fun call__main_.call_controleur.avance.next () Bool)
(declare-fun nS () Int)
(declare-fun call_Sofar.flby () Bool)
(declare-fun call__main_.ast.next () Bool)
(declare-fun call_Sofar.flby.next () Bool)
(declare-fun call__main_.ite.next () Int)
(declare-fun call__main_.call_controleur.flby2 () Bool)
(declare-fun call__main_.retard0.next () Bool)
(declare-fun call__main_.flby2 () Int)
(declare-fun diff0 () Int)
(declare-fun call__main_.retard0 () Bool)
(declare-fun call__main_.avance0.next () Bool)
(declare-fun call__main_.nB1.next () Int)
(declare-fun call__main_.call_controleur2.diff.next () Int)
(declare-fun call__main_.call_controleur.flby2.next () Bool)
(declare-fun call__main_.diff0.next () Int)
(declare-fun call__main_._H1_ () Bool)
(declare-fun call__main_.flby3.next () Int)
(declare-fun call__main_.call_hypothese.ite4.next () Int)
(declare-fun call__main_.call_hypothese2.ite.next () Bool)
(declare-fun call__main_.call_hypothese2.ite3.next () Int)
(declare-fun diff1 () Int)
(declare-fun call__main_.call_controleur.diff.next () Int)
(declare-fun call__main_.call_controleur2.avance () Bool)
(declare-fun call__main_.call_hypothese2.ite4.next () Int)
(declare-fun call__main_.nB1 () Int)
(declare-fun param__B1_.next () Bool)
(declare-fun call__main_.call_hypothese.flby2 () Int)
(declare-fun ast.next () Bool)
(declare-fun ast () Bool)
(declare-fun nB0 () Int)
(declare-fun call__main_.call_hypothese.ite.next () Bool)
(declare-fun nB0.next () Int)
(declare-fun call__main_.call_controleur2.flby2.next () Bool)
(declare-fun nS.next () Int)
(declare-fun avance1.next () Bool)
(declare-fun call__main_.call_controleur.retard () Bool)
(declare-fun _OK_.next () Bool)
(declare-fun flby.next () Bool)
(declare-fun call__main_.ite3.next () Int)
(declare-fun param__S_.next () Bool)
(declare-fun call__main_.call_hypothese.c () Int)
(declare-fun diff1.next () Int)
(declare-fun call__main_.call_hypothese2.flby2 () Int)
(declare-fun call__main_.call_hypothese.ok () Bool)
(declare-fun call__main_.call_hypothese.c.next () Int)
(declare-fun call__main_._H0_ () Bool)
(define-fun .def_906 () Bool (= call_Sofar.flby.next call_Sofar.Sofar.next))
(define-fun .def_903 () Bool (= call__main_.call_controleur2.flby2.next call__main_.call_controleur2.retard.next))
(define-fun .def_901 () Bool (= call__main_.call_controleur2.flby.next call__main_.call_controleur2.avance.next))
(define-fun .def_894 () Int (* (- 1) call__main_.nB1.next))
(define-fun .def_897 () Int (+ .def_894 call__main_.nS.next))
(define-fun .def_898 () Int (+ call__main_.call_controleur2.diff.next .def_897))
(define-fun .def_899 () Bool (= .def_898 0))
(define-fun .def_892 () Bool (= call__main_.call_controleur.flby2.next call__main_.call_controleur.retard.next))
(define-fun .def_890 () Bool (= call__main_.call_controleur.flby.next call__main_.call_controleur.avance.next))
(define-fun .def_883 () Int (* (- 1) call__main_.nB0.next))
(define-fun .def_886 () Int (+ .def_883 call__main_.nS.next))
(define-fun .def_887 () Int (+ call__main_.call_controleur.diff.next .def_886))
(define-fun .def_888 () Bool (= .def_887 0))
(define-fun .def_881 () Bool (= call__main_.call_hypothese2.flby2.next call__main_.call_hypothese2.c.next))
(define-fun .def_878 () Bool (= call__main_.call_hypothese2.flby.next call__main_.call_hypothese2.ok.next))
(define-fun .def_876 () Bool (= call__main_.call_hypothese.flby2.next call__main_.call_hypothese.c.next))
(define-fun .def_873 () Bool (= call__main_.call_hypothese.flby.next call__main_.call_hypothese.ok.next))
(define-fun .def_871 () Bool (= call__main_._H1_.next call__main_.call_hypothese2.ok.next))
(define-fun .def_868 () Bool (= call__main_._H0_.next call__main_.call_hypothese.ok.next))
(define-fun .def_865 () Bool (= call__main_.retard1.next call__main_.call_controleur2.retard.next))
(define-fun .def_862 () Bool (= call__main_.retard0.next call__main_.call_controleur.retard.next))
(define-fun .def_859 () Bool (= call__main_.avance1.next call__main_.call_controleur2.avance.next))
(define-fun .def_856 () Bool (= call__main_.avance0.next call__main_.call_controleur.avance.next))
(define-fun .def_853 () Bool (= call__main_.call_controleur2.diff.next call__main_.diff1.next))
(define-fun .def_851 () Bool (= call__main_.call_controleur.diff.next call__main_.diff0.next))
(define-fun .def_849 () Bool (= call__main_.flby3.next call__main_.nS.next))
(define-fun .def_847 () Bool (= call__main_.flby2.next call__main_.nB1.next))
(define-fun .def_845 () Bool (= call__main_.flby.next call__main_.nB0.next))
(define-fun .def_842 () Bool (and call__main_._H0_.next call__main_._H1_.next))
(define-fun .def_843 () Bool (= call__main_.ast.next .def_842))
(define-fun .def_838 () Bool (= ast.next call__main_.ast.next))
(define-fun .def_835 () Bool (= retard1.next call__main_.retard1.next))
(define-fun .def_831 () Bool (= retard0.next call__main_.retard0.next))
(define-fun .def_827 () Bool (= call__main_.avance1.next avance1.next))
(define-fun .def_824 () Bool (= call__main_.avance0.next avance0.next))
(define-fun .def_821 () Bool (= diff1.next call__main_.diff1.next))
(define-fun .def_817 () Bool (= diff0.next call__main_.diff0.next))
(define-fun .def_813 () Bool (= nS.next call__main_.nS.next))
(define-fun .def_809 () Bool (= nB1.next call__main_.nB1.next))
(define-fun .def_805 () Bool (= nB0.next call__main_.nB0.next))
(define-fun .def_802 () Bool (= flby.next _OK_.next))
(define-fun .def_806 () Bool (and .def_802 .def_805))
(define-fun .def_810 () Bool (and .def_806 .def_809))
(define-fun .def_814 () Bool (and .def_810 .def_813))
(define-fun .def_818 () Bool (and .def_814 .def_817))
(define-fun .def_822 () Bool (and .def_818 .def_821))
(define-fun .def_825 () Bool (and .def_822 .def_824))
(define-fun .def_828 () Bool (and .def_825 .def_827))
(define-fun .def_832 () Bool (and .def_828 .def_831))
(define-fun .def_836 () Bool (and .def_832 .def_835))
(define-fun .def_839 () Bool (and .def_836 .def_838))
(define-fun .def_844 () Bool (and .def_839 .def_843))
(define-fun .def_846 () Bool (and .def_844 .def_845))
(define-fun .def_848 () Bool (and .def_846 .def_847))
(define-fun .def_850 () Bool (and .def_848 .def_849))
(define-fun .def_852 () Bool (and .def_850 .def_851))
(define-fun .def_854 () Bool (and .def_852 .def_853))
(define-fun .def_857 () Bool (and .def_854 .def_856))
(define-fun .def_860 () Bool (and .def_857 .def_859))
(define-fun .def_863 () Bool (and .def_860 .def_862))
(define-fun .def_866 () Bool (and .def_863 .def_865))
(define-fun .def_869 () Bool (and .def_866 .def_868))
(define-fun .def_872 () Bool (and .def_869 .def_871))
(define-fun .def_874 () Bool (and .def_872 .def_873))
(define-fun .def_877 () Bool (and .def_874 .def_876))
(define-fun .def_879 () Bool (and .def_877 .def_878))
(define-fun .def_882 () Bool (and .def_879 .def_881))
(define-fun .def_889 () Bool (and .def_882 .def_888))
(define-fun .def_891 () Bool (and .def_889 .def_890))
(define-fun .def_893 () Bool (and .def_891 .def_892))
(define-fun .def_900 () Bool (and .def_893 .def_899))
(define-fun .def_902 () Bool (and .def_900 .def_901))
(define-fun .def_904 () Bool (and .def_902 .def_903))
(define-fun .def_907 () Bool (and .def_904 .def_906))
(define-fun .def_613 () Bool (= call_Sofar.flby call_Sofar.Sofar))
(define-fun .def_610 () Bool (= call__main_.call_controleur2.flby2 call__main_.call_controleur2.retard))
(define-fun .def_608 () Bool (= call__main_.call_controleur2.flby call__main_.call_controleur2.avance))
(define-fun .def_603 () Int (* (- 1) call__main_.call_controleur2.diff))
(define-fun .def_591 () Int (* (- 1) call__main_.nS))
(define-fun .def_604 () Int (+ .def_591 .def_603))
(define-fun .def_605 () Int (+ call__main_.nB1 .def_604))
(define-fun .def_606 () Bool (= .def_605 0))
(define-fun .def_598 () Bool (= call__main_.call_controleur.flby2 call__main_.call_controleur.retard))
(define-fun .def_596 () Bool (= call__main_.call_controleur.flby call__main_.call_controleur.avance))
(define-fun .def_590 () Int (* (- 1) call__main_.call_controleur.diff))
(define-fun .def_592 () Int (+ .def_591 .def_590))
(define-fun .def_593 () Int (+ call__main_.nB0 .def_592))
(define-fun .def_594 () Bool (= .def_593 0))
(define-fun .def_585 () Bool (= call__main_.call_hypothese2.flby2 call__main_.call_hypothese2.c))
(define-fun .def_582 () Bool (= call__main_.call_hypothese2.flby call__main_.call_hypothese2.ok))
(define-fun .def_580 () Bool (= call__main_.call_hypothese.flby2 call__main_.call_hypothese.c))
(define-fun .def_577 () Bool (= call__main_.call_hypothese.flby call__main_.call_hypothese.ok))
(define-fun .def_575 () Bool (= call__main_._H1_ call__main_.call_hypothese2.ok))
(define-fun .def_572 () Bool (= call__main_._H0_ call__main_.call_hypothese.ok))
(define-fun .def_569 () Bool (= call__main_.retard1 call__main_.call_controleur2.retard))
(define-fun .def_566 () Bool (= call__main_.retard0 call__main_.call_controleur.retard))
(define-fun .def_563 () Bool (= call__main_.avance1 call__main_.call_controleur2.avance))
(define-fun .def_560 () Bool (= call__main_.avance0 call__main_.call_controleur.avance))
(define-fun .def_557 () Bool (= call__main_.diff1 call__main_.call_controleur2.diff))
(define-fun .def_554 () Bool (= call__main_.diff0 call__main_.call_controleur.diff))
(define-fun .def_551 () Bool (= call__main_.flby3 call__main_.nS))
(define-fun .def_549 () Bool (= call__main_.flby2 call__main_.nB1))
(define-fun .def_547 () Bool (= call__main_.flby call__main_.nB0))
(define-fun .def_544 () Bool (and call__main_._H0_ call__main_._H1_))
(define-fun .def_545 () Bool (= call__main_.ast .def_544))
(define-fun .def_540 () Bool (= ast call__main_.ast))
(define-fun .def_537 () Bool (= retard1 call__main_.retard1))
(define-fun .def_533 () Bool (= retard0 call__main_.retard0))
(define-fun .def_529 () Bool (= avance1 call__main_.avance1))
(define-fun .def_525 () Bool (= avance0 call__main_.avance0))
(define-fun .def_521 () Bool (= diff1 call__main_.diff1))
(define-fun .def_517 () Bool (= diff0 call__main_.diff0))
(define-fun .def_513 () Bool (= nS call__main_.nS))
(define-fun .def_509 () Bool (= nB1 call__main_.nB1))
(define-fun .def_505 () Bool (= nB0 call__main_.nB0))
(define-fun .def_502 () Bool (= flby _OK_))
(define-fun .def_506 () Bool (and .def_502 .def_505))
(define-fun .def_510 () Bool (and .def_506 .def_509))
(define-fun .def_514 () Bool (and .def_510 .def_513))
(define-fun .def_518 () Bool (and .def_514 .def_517))
(define-fun .def_522 () Bool (and .def_518 .def_521))
(define-fun .def_526 () Bool (and .def_522 .def_525))
(define-fun .def_530 () Bool (and .def_526 .def_529))
(define-fun .def_534 () Bool (and .def_530 .def_533))
(define-fun .def_538 () Bool (and .def_534 .def_537))
(define-fun .def_541 () Bool (and .def_538 .def_540))
(define-fun .def_546 () Bool (and .def_541 .def_545))
(define-fun .def_548 () Bool (and .def_546 .def_547))
(define-fun .def_550 () Bool (and .def_548 .def_549))
(define-fun .def_552 () Bool (and .def_550 .def_551))
(define-fun .def_555 () Bool (and .def_552 .def_554))
(define-fun .def_558 () Bool (and .def_555 .def_557))
(define-fun .def_561 () Bool (and .def_558 .def_560))
(define-fun .def_564 () Bool (and .def_561 .def_563))
(define-fun .def_567 () Bool (and .def_564 .def_566))
(define-fun .def_570 () Bool (and .def_567 .def_569))
(define-fun .def_573 () Bool (and .def_570 .def_572))
(define-fun .def_576 () Bool (and .def_573 .def_575))
(define-fun .def_578 () Bool (and .def_576 .def_577))
(define-fun .def_581 () Bool (and .def_578 .def_580))
(define-fun .def_583 () Bool (and .def_581 .def_582))
(define-fun .def_586 () Bool (and .def_583 .def_585))
(define-fun .def_595 () Bool (and .def_586 .def_594))
(define-fun .def_597 () Bool (and .def_595 .def_596))
(define-fun .def_599 () Bool (and .def_597 .def_598))
(define-fun .def_607 () Bool (and .def_599 .def_606))
(define-fun .def_609 () Bool (and .def_607 .def_608))
(define-fun .def_611 () Bool (and .def_609 .def_610))
(define-fun .def_614 () Bool (and .def_611 .def_613))
(define-fun .def_908 () Bool (and .def_614 .def_907))
(define-fun .def_797 () Bool (and call_Sofar.Sofar ast.next))
(define-fun .def_799 () Bool (= .def_797 call_Sofar.flby.next))
(define-fun .def_794 () Bool (= call__main_.call_controleur2.ite2.next call__main_.call_controleur2.flby2.next))
(define-fun .def_791 () Bool (= call__main_.call_controleur2.ite.next call__main_.call_controleur2.flby.next))
(define-fun .def_784 () Bool (<= 0 call__main_.call_controleur2.diff.next))
(define-fun .def_785 () Bool (not .def_784))
(define-fun .def_786 () Bool (= call__main_.call_controleur2.ite2.next .def_785))
(define-fun .def_783 () Bool (not call__main_.call_controleur2.retard))
(define-fun .def_787 () Bool (or .def_783 .def_786))
(define-fun .def_778 () Bool (<= call__main_.call_controleur2.diff.next (- 10)))
(define-fun .def_780 () Bool (= .def_778 call__main_.call_controleur2.ite2.next))
(define-fun .def_781 () Bool (or call__main_.call_controleur2.retard .def_780))
(define-fun .def_774 () Bool (<= 10 call__main_.call_controleur2.diff.next))
(define-fun .def_775 () Bool (= call__main_.call_controleur2.ite.next .def_774))
(define-fun .def_776 () Bool (or call__main_.call_controleur2.avance .def_775))
(define-fun .def_769 () Bool (<= call__main_.call_controleur2.diff.next 0))
(define-fun .def_770 () Bool (not .def_769))
(define-fun .def_772 () Bool (= .def_770 call__main_.call_controleur2.ite.next))
(define-fun .def_767 () Bool (not call__main_.call_controleur2.avance))
(define-fun .def_773 () Bool (or .def_767 .def_772))
(define-fun .def_777 () Bool (and .def_773 .def_776))
(define-fun .def_782 () Bool (and .def_777 .def_781))
(define-fun .def_788 () Bool (and .def_782 .def_787))
(define-fun .def_765 () Bool (= call__main_.call_controleur.ite2.next call__main_.call_controleur.flby2.next))
(define-fun .def_762 () Bool (= call__main_.call_controleur.ite.next call__main_.call_controleur.flby.next))
(define-fun .def_755 () Bool (<= 0 call__main_.call_controleur.diff.next))
(define-fun .def_756 () Bool (not .def_755))
(define-fun .def_757 () Bool (= call__main_.call_controleur.ite2.next .def_756))
(define-fun .def_754 () Bool (not call__main_.call_controleur.retard))
(define-fun .def_758 () Bool (or .def_754 .def_757))
(define-fun .def_749 () Bool (<= call__main_.call_controleur.diff.next (- 10)))
(define-fun .def_751 () Bool (= .def_749 call__main_.call_controleur.ite2.next))
(define-fun .def_752 () Bool (or call__main_.call_controleur.retard .def_751))
(define-fun .def_745 () Bool (<= 10 call__main_.call_controleur.diff.next))
(define-fun .def_746 () Bool (= call__main_.call_controleur.ite.next .def_745))
(define-fun .def_747 () Bool (or call__main_.call_controleur.avance .def_746))
(define-fun .def_740 () Bool (<= call__main_.call_controleur.diff.next 0))
(define-fun .def_741 () Bool (not .def_740))
(define-fun .def_743 () Bool (= .def_741 call__main_.call_controleur.ite.next))
(define-fun .def_738 () Bool (not call__main_.call_controleur.avance))
(define-fun .def_744 () Bool (or .def_738 .def_743))
(define-fun .def_748 () Bool (and .def_744 .def_747))
(define-fun .def_753 () Bool (and .def_748 .def_752))
(define-fun .def_759 () Bool (and .def_753 .def_758))
(define-fun .def_736 () Bool (= call__main_.call_hypothese2.ite4.next call__main_.call_hypothese2.flby2.next))
(define-fun .def_731 () Bool (and call__main_.call_hypothese2.ite2.next call__main_.call_hypothese2.ite.next))
(define-fun .def_733 () Bool (= .def_731 call__main_.call_hypothese2.flby.next))
(define-fun .def_623 () Bool (<= 9 call__main_.call_hypothese2.c))
(define-fun .def_729 () Bool (or call__main_.call_hypothese2.ite2.next .def_623))
(define-fun .def_727 () Bool (= call__main_.call_hypothese.ite4.next call__main_.call_hypothese.flby2.next))
(define-fun .def_722 () Bool (and call__main_.call_hypothese.ite2.next call__main_.call_hypothese.ite.next))
(define-fun .def_724 () Bool (= .def_722 call__main_.call_hypothese.flby.next))
(define-fun .def_645 () Bool (<= 9 call__main_.call_hypothese.c))
(define-fun .def_720 () Bool (or call__main_.call_hypothese.ite2.next .def_645))
(define-fun .def_718 () Bool (= call__main_.ite3.next call__main_.flby3.next))
(define-fun .def_715 () Bool (= call__main_.ite2.next call__main_.flby2.next))
(define-fun .def_712 () Bool (= call__main_.ite.next call__main_.flby.next))
(define-fun .def_709 () Bool (or call__main_.retard1 call__main_.call_hypothese2.ite.next))
(define-fun .def_707 () Bool (or call__main_.retard0 call__main_.call_hypothese.ite.next))
(define-fun .def_700 () Bool (and call__main_.avance1 call__main_.avance1.next))
(define-fun .def_703 () Bool (not .def_700))
(define-fun .def_702 () Bool (= call__main_.call_hypothese2.ite3.next call__main_.call_hypothese2.ite4.next))
(define-fun .def_704 () Bool (or .def_702 .def_703))
(define-fun .def_698 () Bool (= call__main_.call_hypothese2.ite4.next 0))
(define-fun .def_701 () Bool (or .def_698 .def_700))
(define-fun .def_705 () Bool (and .def_701 .def_704))
(define-fun .def_690 () Bool (and call__main_.avance0 call__main_.avance0.next))
(define-fun .def_693 () Bool (not .def_690))
(define-fun .def_692 () Bool (= call__main_.call_hypothese.ite3.next call__main_.call_hypothese.ite4.next))
(define-fun .def_694 () Bool (or .def_692 .def_693))
(define-fun .def_688 () Bool (= call__main_.call_hypothese.ite4.next 0))
(define-fun .def_691 () Bool (or .def_688 .def_690))
(define-fun .def_695 () Bool (and .def_691 .def_694))
(define-fun .def_681 () Int (* (- 1) nB1))
(define-fun .def_682 () Int (+ nB0 .def_681))
(define-fun .def_683 () Bool (<= .def_682 30))
(define-fun .def_685 () Bool (= .def_683 flby.next))
(define-fun .def_675 () Bool (= call__main_.nS call__main_.ite3.next))
(define-fun .def_676 () Bool (or param__S_.next .def_675))
(define-fun .def_670 () Int (* (- 1) call__main_.ite3.next))
(define-fun .def_671 () Int (+ call__main_.nS .def_670))
(define-fun .def_672 () Bool (= .def_671 (- 1)))
(define-fun .def_659 () Bool (not param__S_.next))
(define-fun .def_673 () Bool (or .def_659 .def_672))
(define-fun .def_666 () Bool (not call__main_.retard0))
(define-fun .def_665 () Bool (= .def_659 call__main_.call_hypothese.ite.next))
(define-fun .def_667 () Bool (or .def_665 .def_666))
(define-fun .def_662 () Bool (not call__main_.retard1))
(define-fun .def_661 () Bool (= .def_659 call__main_.call_hypothese2.ite.next))
(define-fun .def_663 () Bool (or .def_661 .def_662))
(define-fun .def_668 () Bool (and .def_663 .def_667))
(define-fun .def_674 () Bool (and .def_668 .def_673))
(define-fun .def_677 () Bool (and .def_674 .def_676))
(define-fun .def_652 () Bool (= call__main_.nB0 call__main_.ite.next))
(define-fun .def_655 () Bool (or param__B0_.next .def_652))
(define-fun .def_641 () Bool (not param__B0_.next))
(define-fun .def_653 () Bool (or .def_641 .def_652))
(define-fun .def_639 () Bool (= call__main_.call_hypothese.c call__main_.call_hypothese.ite3.next))
(define-fun .def_649 () Bool (or .def_639 param__B0_.next))
(define-fun .def_646 () Bool (not .def_645))
(define-fun .def_644 () Bool (= .def_641 call__main_.call_hypothese.ite2.next))
(define-fun .def_647 () Bool (or .def_644 .def_646))
(define-fun .def_642 () Bool (or .def_639 .def_641))
(define-fun .def_648 () Bool (and .def_642 .def_647))
(define-fun .def_650 () Bool (and .def_648 .def_649))
(define-fun .def_654 () Bool (and .def_650 .def_653))
(define-fun .def_656 () Bool (and .def_654 .def_655))
(define-fun .def_635 () Bool (= call__main_.nB1 call__main_.ite2.next))
(define-fun .def_636 () Bool (or param__B1_.next .def_635))
(define-fun .def_630 () Int (* (- 1) call__main_.ite2.next))
(define-fun .def_631 () Int (+ call__main_.nB1 .def_630))
(define-fun .def_632 () Bool (= .def_631 (- 1)))
(define-fun .def_619 () Bool (not param__B1_.next))
(define-fun .def_633 () Bool (or .def_619 .def_632))
(define-fun .def_617 () Bool (= call__main_.call_hypothese2.c call__main_.call_hypothese2.ite3.next))
(define-fun .def_627 () Bool (or .def_617 param__B1_.next))
(define-fun .def_624 () Bool (not .def_623))
(define-fun .def_622 () Bool (= .def_619 call__main_.call_hypothese2.ite2.next))
(define-fun .def_625 () Bool (or .def_622 .def_624))
(define-fun .def_620 () Bool (or .def_617 .def_619))
(define-fun .def_626 () Bool (and .def_620 .def_625))
(define-fun .def_628 () Bool (and .def_626 .def_627))
(define-fun .def_634 () Bool (and .def_628 .def_633))
(define-fun .def_637 () Bool (and .def_634 .def_636))
(define-fun .def_657 () Bool (and .def_637 .def_656))
(define-fun .def_678 () Bool (and .def_657 .def_677))
(define-fun .def_686 () Bool (and .def_678 .def_685))
(define-fun .def_696 () Bool (and .def_686 .def_695))
(define-fun .def_706 () Bool (and .def_696 .def_705))
(define-fun .def_708 () Bool (and .def_706 .def_707))
(define-fun .def_710 () Bool (and .def_708 .def_709))
(define-fun .def_713 () Bool (and .def_710 .def_712))
(define-fun .def_716 () Bool (and .def_713 .def_715))
(define-fun .def_719 () Bool (and .def_716 .def_718))
(define-fun .def_721 () Bool (and .def_719 .def_720))
(define-fun .def_725 () Bool (and .def_721 .def_724))
(define-fun .def_728 () Bool (and .def_725 .def_727))
(define-fun .def_730 () Bool (and .def_728 .def_729))
(define-fun .def_734 () Bool (and .def_730 .def_733))
(define-fun .def_737 () Bool (and .def_734 .def_736))
(define-fun .def_760 () Bool (and .def_737 .def_759))
(define-fun .def_763 () Bool (and .def_760 .def_762))
(define-fun .def_766 () Bool (and .def_763 .def_765))
(define-fun .def_789 () Bool (and .def_766 .def_788))
(define-fun .def_792 () Bool (and .def_789 .def_791))
(define-fun .def_795 () Bool (and .def_792 .def_794))
(define-fun .def_800 () Bool (and .def_795 .def_799))
(define-fun .def_909 () Bool (and .def_800 .def_908))
(assert .def_909)
